Minimize
	value: tt

Subject to
tt + 1000 s_1_1 > 0.0
tt - t_1_1 - 1007.447958 s_1_1  + 3.723979 s_1_8  + 3.723979 s_1_7  > -975.318700
tt + 1000 s_2_1 > 0.0
tt - t_2_1 - 1006.791846 s_2_1  + 3.395923 s_2_8  + 3.395923 s_2_7  > -951.454578
tt + 1000 s_1_2 > 0.0
tt - t_1_2 - 1003.723979 s_1_2  + 3.723979 s_1_7  > -975.402200
tt + 1000 s_2_2 > 0.0
tt - t_2_2 - 1003.395923 s_2_2  + 3.395923 s_2_7  > -951.357856
tt + 1000 s_1_3 > 0.0
tt - t_1_3 - 1007.447958 s_1_3  + 3.723979 s_1_8  + 3.723979 s_1_7  > -994.450600
tt + 1000 s_2_3 > 0.0
tt - t_2_3 - 1006.791846 s_2_3  + 3.395923 s_2_8  + 3.395923 s_2_7  > -993.193311
tt + 1000 s_1_4 > 0.0
tt - t_1_4 - 1003.723979 s_1_4  + 3.723979 s_1_7  > -990.222800
tt + 1000 s_2_4 > 0.0
tt - t_2_4 - 1003.395923 s_2_4  + 3.395923 s_2_7  > -989.481222
tt + 1000 s_1_5 > 0.0
tt - t_1_5 - 1003.723979 s_1_5  + 3.723979 s_1_8  > -988.906544
tt + 1000 s_2_5 > 0.0
tt - t_2_5 - 1003.395923 s_2_5  + 3.395923 s_2_8  > -976.382978
tt + 1000 s_1_6 > 0.0
tt - t_1_6 - 1022.343875 s_1_6  + 3.723979 s_1_3  + 3.723979 s_1_7  + 3.723979 s_1_1  + 3.723979 s_1_5  + 3.723979 s_1_2  + 3.723979 s_1_4  > -996.719600
tt + 1000 s_2_6 > 0.0
tt - t_2_6 - 1020.375537 s_2_6  + 3.395923 s_2_3  + 3.395923 s_2_7  + 3.395923 s_2_1  + 3.395923 s_2_5  + 3.395923 s_2_2  + 3.395923 s_2_4  > -994.646100
tt + 1000 s_1_7 > 0.0
tt - t_1_7 - 1000.000000 s_1_7  > -956.664000
tt + 1000 s_2_7 > 0.0
tt - t_2_7 - 1000.000000 s_2_7  > -950.926100
tt + 1000 s_1_8 > 0.0
tt - t_1_8 - 1000.000000 s_1_8  > -959.520200
tt + 1000 s_2_8 > 0.0
tt - t_2_8 - 1000.000000 s_2_8  > -952.784700
s_1_1 + s_2_1 = 1
s_1_2 + s_2_2 = 1
s_1_3 + s_2_3 = 1
s_1_4 + s_2_4 = 1
s_1_5 + s_2_5 = 1
s_1_6 + s_2_6 = 1
s_1_7 + s_2_7 = 1
s_1_8 + s_2_8 = 1
s_1_1 + s_1_2 + 1000 r_1_1_2 >= 2
- s_1_1 - s_1_2 - 1000 r_1_1_2 >= -1001
t_1_1 - t_1_2 - 1000.000000 u_1_1_2 - 3.723979 s_1_2  + 3.723979 s_1_7  + 2000.000000 r_1_1_2 > -975.402200
s_2_1 + s_2_2 + 1000 r_2_1_2 >= 2
- s_2_1 - s_2_2 - 1000 r_2_1_2 >= -1001
t_2_1 - t_2_2 - 1000.000000 u_2_1_2 - 3.395923 s_2_2  + 3.395923 s_2_7  + 2000.000000 r_2_1_2 > -951.357856
s_1_1 + s_1_3 + 1000 r_1_1_3 >= 2
- s_1_1 - s_1_3 - 1000 r_1_1_3 >= -1001
t_1_1 - t_1_3 - 1000.000000 u_1_1_3 - 7.447958 s_1_3  + 3.723979 s_1_8  + 3.723979 s_1_7  + 2000.000000 r_1_1_3 > -994.450600
s_2_1 + s_2_3 + 1000 r_2_1_3 >= 2
- s_2_1 - s_2_3 - 1000 r_2_1_3 >= -1001
t_2_1 - t_2_3 - 1000.000000 u_2_1_3 - 6.791846 s_2_3  + 3.395923 s_2_8  + 3.395923 s_2_7  + 2000.000000 r_2_1_3 > -993.193311
s_1_1 + s_1_4 + 1000 r_1_1_4 >= 2
- s_1_1 - s_1_4 - 1000 r_1_1_4 >= -1001
t_1_1 - t_1_4 - 1000.000000 u_1_1_4 - 3.723979 s_1_4  + 3.723979 s_1_7  + 2000.000000 r_1_1_4 > -990.222800
s_2_1 + s_2_4 + 1000 r_2_1_4 >= 2
- s_2_1 - s_2_4 - 1000 r_2_1_4 >= -1001
t_2_1 - t_2_4 - 1000.000000 u_2_1_4 - 3.395923 s_2_4  + 3.395923 s_2_7  + 2000.000000 r_2_1_4 > -989.481222
s_1_1 + s_1_5 + 1000 r_1_1_5 >= 2
- s_1_1 - s_1_5 - 1000 r_1_1_5 >= -1001
t_1_1 - t_1_5 - 1000.000000 u_1_1_5 - 3.723979 s_1_5  + 3.723979 s_1_8  + 2000.000000 r_1_1_5 > -988.906544
s_2_1 + s_2_5 + 1000 r_2_1_5 >= 2
- s_2_1 - s_2_5 - 1000 r_2_1_5 >= -1001
t_2_1 - t_2_5 - 1000.000000 u_2_1_5 - 3.395923 s_2_5  + 3.395923 s_2_8  + 2000.000000 r_2_1_5 > -976.382978
t_1_6 - t_1_1 - 1007.447958 s_1_1  + 3.723979 s_1_8  + 3.723979 s_1_7  > -975.318700
t_1_6 - t_2_1 - 1006.791846 s_2_1  + 3.395923 s_2_8  + 3.395923 s_2_7  > -951.454578
t_2_6 - t_1_1 - 1007.447958 s_1_1  + 3.723979 s_1_8  + 3.723979 s_1_7  > -975.318700
t_2_6 - t_2_1 - 1006.791846 s_2_1  + 3.395923 s_2_8  + 3.395923 s_2_7  > -951.454578
t_1_1 - t_1_7 - 1000.000000 s_1_7  > -956.664000
t_1_1 - t_2_7 - 1000.000000 s_2_7  > -950.926100
t_2_1 - t_1_7 - 1000.000000 s_1_7  > -956.664000
t_2_1 - t_2_7 - 1000.000000 s_2_7  > -950.926100
t_1_1 - t_1_8 - 1000.000000 s_1_8  > -959.520200
t_1_1 - t_2_8 - 1000.000000 s_2_8  > -952.784700
t_2_1 - t_1_8 - 1000.000000 s_1_8  > -959.520200
t_2_1 - t_2_8 - 1000.000000 s_2_8  > -952.784700
s_1_2 + s_1_1 + 1000 r_1_1_2 >= 2
- s_1_2 - s_1_1 - 1000 r_1_1_2 >= -1001
t_1_2 - t_1_1 + 1000.000000 u_1_1_2 - 7.447958 s_1_1  + 3.723979 s_1_8  + 3.723979 s_1_7  + 2000.000000 r_1_1_2 > 24.681300
s_2_2 + s_2_1 + 1000 r_2_1_2 >= 2
- s_2_2 - s_2_1 - 1000 r_2_1_2 >= -1001
t_2_2 - t_2_1 + 1000.000000 u_2_1_2 - 6.791846 s_2_1  + 3.395923 s_2_8  + 3.395923 s_2_7  + 2000.000000 r_2_1_2 > 48.545422
s_1_2 + s_1_3 + 1000 r_1_2_3 >= 2
- s_1_2 - s_1_3 - 1000 r_1_2_3 >= -1001
t_1_2 - t_1_3 - 1000.000000 u_1_2_3 - 7.447958 s_1_3  + 3.723979 s_1_8  + 3.723979 s_1_7  + 2000.000000 r_1_2_3 > -994.450600
s_2_2 + s_2_3 + 1000 r_2_2_3 >= 2
- s_2_2 - s_2_3 - 1000 r_2_2_3 >= -1001
t_2_2 - t_2_3 - 1000.000000 u_2_2_3 - 6.791846 s_2_3  + 3.395923 s_2_8  + 3.395923 s_2_7  + 2000.000000 r_2_2_3 > -993.193311
s_1_2 + s_1_4 + 1000 r_1_2_4 >= 2
- s_1_2 - s_1_4 - 1000 r_1_2_4 >= -1001
t_1_2 - t_1_4 - 1000.000000 u_1_2_4 - 3.723979 s_1_4  + 3.723979 s_1_7  + 2000.000000 r_1_2_4 > -990.222800
s_2_2 + s_2_4 + 1000 r_2_2_4 >= 2
- s_2_2 - s_2_4 - 1000 r_2_2_4 >= -1001
t_2_2 - t_2_4 - 1000.000000 u_2_2_4 - 3.395923 s_2_4  + 3.395923 s_2_7  + 2000.000000 r_2_2_4 > -989.481222
s_1_2 + s_1_5 + 1000 r_1_2_5 >= 2
- s_1_2 - s_1_5 - 1000 r_1_2_5 >= -1001
t_1_2 - t_1_5 - 1000.000000 u_1_2_5 - 3.723979 s_1_5  + 3.723979 s_1_8  + 2000.000000 r_1_2_5 > -988.906544
s_2_2 + s_2_5 + 1000 r_2_2_5 >= 2
- s_2_2 - s_2_5 - 1000 r_2_2_5 >= -1001
t_2_2 - t_2_5 - 1000.000000 u_2_2_5 - 3.395923 s_2_5  + 3.395923 s_2_8  + 2000.000000 r_2_2_5 > -976.382978
t_1_6 - t_1_2 - 1003.723979 s_1_2  + 3.723979 s_1_7  > -975.402200
t_1_6 - t_2_2 - 1003.395923 s_2_2  + 3.395923 s_2_7  > -951.357856
t_2_6 - t_1_2 - 1003.723979 s_1_2  + 3.723979 s_1_7  > -975.402200
t_2_6 - t_2_2 - 1003.395923 s_2_2  + 3.395923 s_2_7  > -951.357856
t_1_2 - t_1_7 - 1000.000000 s_1_7  > -956.664000
t_1_2 - t_2_7 - 1000.000000 s_2_7  > -950.926100
t_2_2 - t_1_7 - 1000.000000 s_1_7  > -956.664000
t_2_2 - t_2_7 - 1000.000000 s_2_7  > -950.926100
s_1_2 + s_1_8 + 1000 r_1_2_8 >= 2
- s_1_2 - s_1_8 - 1000 r_1_2_8 >= -1001
t_1_2 - t_1_8 - 1000.000000 u_1_2_8 - 0.000000 s_1_8  + 2000.000000 r_1_2_8 > -959.520200
s_2_2 + s_2_8 + 1000 r_2_2_8 >= 2
- s_2_2 - s_2_8 - 1000 r_2_2_8 >= -1001
t_2_2 - t_2_8 - 1000.000000 u_2_2_8 - 0.000000 s_2_8  + 2000.000000 r_2_2_8 > -952.784700
s_1_3 + s_1_1 + 1000 r_1_1_3 >= 2
- s_1_3 - s_1_1 - 1000 r_1_1_3 >= -1001
t_1_3 - t_1_1 + 1000.000000 u_1_1_3 - 7.447958 s_1_1  + 3.723979 s_1_8  + 3.723979 s_1_7  + 2000.000000 r_1_1_3 > 24.681300
s_2_3 + s_2_1 + 1000 r_2_1_3 >= 2
- s_2_3 - s_2_1 - 1000 r_2_1_3 >= -1001
t_2_3 - t_2_1 + 1000.000000 u_2_1_3 - 6.791846 s_2_1  + 3.395923 s_2_8  + 3.395923 s_2_7  + 2000.000000 r_2_1_3 > 48.545422
s_1_3 + s_1_2 + 1000 r_1_2_3 >= 2
- s_1_3 - s_1_2 - 1000 r_1_2_3 >= -1001
t_1_3 - t_1_2 + 1000.000000 u_1_2_3 - 3.723979 s_1_2  + 3.723979 s_1_7  + 2000.000000 r_1_2_3 > 24.597800
s_2_3 + s_2_2 + 1000 r_2_2_3 >= 2
- s_2_3 - s_2_2 - 1000 r_2_2_3 >= -1001
t_2_3 - t_2_2 + 1000.000000 u_2_2_3 - 3.395923 s_2_2  + 3.395923 s_2_7  + 2000.000000 r_2_2_3 > 48.642144
s_1_3 + s_1_4 + 1000 r_1_3_4 >= 2
- s_1_3 - s_1_4 - 1000 r_1_3_4 >= -1001
t_1_3 - t_1_4 - 1000.000000 u_1_3_4 - 3.723979 s_1_4  + 3.723979 s_1_7  + 2000.000000 r_1_3_4 > -990.222800
s_2_3 + s_2_4 + 1000 r_2_3_4 >= 2
- s_2_3 - s_2_4 - 1000 r_2_3_4 >= -1001
t_2_3 - t_2_4 - 1000.000000 u_2_3_4 - 3.395923 s_2_4  + 3.395923 s_2_7  + 2000.000000 r_2_3_4 > -989.481222
s_1_3 + s_1_5 + 1000 r_1_3_5 >= 2
- s_1_3 - s_1_5 - 1000 r_1_3_5 >= -1001
t_1_3 - t_1_5 - 1000.000000 u_1_3_5 - 3.723979 s_1_5  + 3.723979 s_1_8  + 2000.000000 r_1_3_5 > -988.906544
s_2_3 + s_2_5 + 1000 r_2_3_5 >= 2
- s_2_3 - s_2_5 - 1000 r_2_3_5 >= -1001
t_2_3 - t_2_5 - 1000.000000 u_2_3_5 - 3.395923 s_2_5  + 3.395923 s_2_8  + 2000.000000 r_2_3_5 > -976.382978
t_1_6 - t_1_3 - 1007.447958 s_1_3  + 3.723979 s_1_8  + 3.723979 s_1_7  > -994.450600
t_1_6 - t_2_3 - 1006.791846 s_2_3  + 3.395923 s_2_8  + 3.395923 s_2_7  > -993.193311
t_2_6 - t_1_3 - 1007.447958 s_1_3  + 3.723979 s_1_8  + 3.723979 s_1_7  > -994.450600
t_2_6 - t_2_3 - 1006.791846 s_2_3  + 3.395923 s_2_8  + 3.395923 s_2_7  > -993.193311
t_1_3 - t_1_7 - 1000.000000 s_1_7  > -956.664000
t_1_3 - t_2_7 - 1000.000000 s_2_7  > -950.926100
t_2_3 - t_1_7 - 1000.000000 s_1_7  > -956.664000
t_2_3 - t_2_7 - 1000.000000 s_2_7  > -950.926100
t_1_3 - t_1_8 - 1000.000000 s_1_8  > -959.520200
t_1_3 - t_2_8 - 1000.000000 s_2_8  > -952.784700
t_2_3 - t_1_8 - 1000.000000 s_1_8  > -959.520200
t_2_3 - t_2_8 - 1000.000000 s_2_8  > -952.784700
s_1_4 + s_1_1 + 1000 r_1_1_4 >= 2
- s_1_4 - s_1_1 - 1000 r_1_1_4 >= -1001
t_1_4 - t_1_1 + 1000.000000 u_1_1_4 - 7.447958 s_1_1  + 3.723979 s_1_8  + 3.723979 s_1_7  + 2000.000000 r_1_1_4 > 24.681300
s_2_4 + s_2_1 + 1000 r_2_1_4 >= 2
- s_2_4 - s_2_1 - 1000 r_2_1_4 >= -1001
t_2_4 - t_2_1 + 1000.000000 u_2_1_4 - 6.791846 s_2_1  + 3.395923 s_2_8  + 3.395923 s_2_7  + 2000.000000 r_2_1_4 > 48.545422
s_1_4 + s_1_2 + 1000 r_1_2_4 >= 2
- s_1_4 - s_1_2 - 1000 r_1_2_4 >= -1001
t_1_4 - t_1_2 + 1000.000000 u_1_2_4 - 3.723979 s_1_2  + 3.723979 s_1_7  + 2000.000000 r_1_2_4 > 24.597800
s_2_4 + s_2_2 + 1000 r_2_2_4 >= 2
- s_2_4 - s_2_2 - 1000 r_2_2_4 >= -1001
t_2_4 - t_2_2 + 1000.000000 u_2_2_4 - 3.395923 s_2_2  + 3.395923 s_2_7  + 2000.000000 r_2_2_4 > 48.642144
s_1_4 + s_1_3 + 1000 r_1_3_4 >= 2
- s_1_4 - s_1_3 - 1000 r_1_3_4 >= -1001
t_1_4 - t_1_3 + 1000.000000 u_1_3_4 - 7.447958 s_1_3  + 3.723979 s_1_8  + 3.723979 s_1_7  + 2000.000000 r_1_3_4 > 5.549400
s_2_4 + s_2_3 + 1000 r_2_3_4 >= 2
- s_2_4 - s_2_3 - 1000 r_2_3_4 >= -1001
t_2_4 - t_2_3 + 1000.000000 u_2_3_4 - 6.791846 s_2_3  + 3.395923 s_2_8  + 3.395923 s_2_7  + 2000.000000 r_2_3_4 > 6.806689
s_1_4 + s_1_5 + 1000 r_1_4_5 >= 2
- s_1_4 - s_1_5 - 1000 r_1_4_5 >= -1001
t_1_4 - t_1_5 - 1000.000000 u_1_4_5 - 3.723979 s_1_5  + 3.723979 s_1_8  + 2000.000000 r_1_4_5 > -988.906544
s_2_4 + s_2_5 + 1000 r_2_4_5 >= 2
- s_2_4 - s_2_5 - 1000 r_2_4_5 >= -1001
t_2_4 - t_2_5 - 1000.000000 u_2_4_5 - 3.395923 s_2_5  + 3.395923 s_2_8  + 2000.000000 r_2_4_5 > -976.382978
t_1_6 - t_1_4 - 1003.723979 s_1_4  + 3.723979 s_1_7  > -990.222800
t_1_6 - t_2_4 - 1003.395923 s_2_4  + 3.395923 s_2_7  > -989.481222
t_2_6 - t_1_4 - 1003.723979 s_1_4  + 3.723979 s_1_7  > -990.222800
t_2_6 - t_2_4 - 1003.395923 s_2_4  + 3.395923 s_2_7  > -989.481222
t_1_4 - t_1_7 - 1000.000000 s_1_7  > -956.664000
t_1_4 - t_2_7 - 1000.000000 s_2_7  > -950.926100
t_2_4 - t_1_7 - 1000.000000 s_1_7  > -956.664000
t_2_4 - t_2_7 - 1000.000000 s_2_7  > -950.926100
s_1_4 + s_1_8 + 1000 r_1_4_8 >= 2
- s_1_4 - s_1_8 - 1000 r_1_4_8 >= -1001
t_1_4 - t_1_8 - 1000.000000 u_1_4_8 - 0.000000 s_1_8  + 2000.000000 r_1_4_8 > -959.520200
s_2_4 + s_2_8 + 1000 r_2_4_8 >= 2
- s_2_4 - s_2_8 - 1000 r_2_4_8 >= -1001
t_2_4 - t_2_8 - 1000.000000 u_2_4_8 - 0.000000 s_2_8  + 2000.000000 r_2_4_8 > -952.784700
s_1_5 + s_1_1 + 1000 r_1_1_5 >= 2
- s_1_5 - s_1_1 - 1000 r_1_1_5 >= -1001
t_1_5 - t_1_1 + 1000.000000 u_1_1_5 - 7.447958 s_1_1  + 3.723979 s_1_8  + 3.723979 s_1_7  + 2000.000000 r_1_1_5 > 24.681300
s_2_5 + s_2_1 + 1000 r_2_1_5 >= 2
- s_2_5 - s_2_1 - 1000 r_2_1_5 >= -1001
t_2_5 - t_2_1 + 1000.000000 u_2_1_5 - 6.791846 s_2_1  + 3.395923 s_2_8  + 3.395923 s_2_7  + 2000.000000 r_2_1_5 > 48.545422
s_1_5 + s_1_2 + 1000 r_1_2_5 >= 2
- s_1_5 - s_1_2 - 1000 r_1_2_5 >= -1001
t_1_5 - t_1_2 + 1000.000000 u_1_2_5 - 3.723979 s_1_2  + 3.723979 s_1_7  + 2000.000000 r_1_2_5 > 24.597800
s_2_5 + s_2_2 + 1000 r_2_2_5 >= 2
- s_2_5 - s_2_2 - 1000 r_2_2_5 >= -1001
t_2_5 - t_2_2 + 1000.000000 u_2_2_5 - 3.395923 s_2_2  + 3.395923 s_2_7  + 2000.000000 r_2_2_5 > 48.642144
s_1_5 + s_1_3 + 1000 r_1_3_5 >= 2
- s_1_5 - s_1_3 - 1000 r_1_3_5 >= -1001
t_1_5 - t_1_3 + 1000.000000 u_1_3_5 - 7.447958 s_1_3  + 3.723979 s_1_8  + 3.723979 s_1_7  + 2000.000000 r_1_3_5 > 5.549400
s_2_5 + s_2_3 + 1000 r_2_3_5 >= 2
- s_2_5 - s_2_3 - 1000 r_2_3_5 >= -1001
t_2_5 - t_2_3 + 1000.000000 u_2_3_5 - 6.791846 s_2_3  + 3.395923 s_2_8  + 3.395923 s_2_7  + 2000.000000 r_2_3_5 > 6.806689
s_1_5 + s_1_4 + 1000 r_1_4_5 >= 2
- s_1_5 - s_1_4 - 1000 r_1_4_5 >= -1001
t_1_5 - t_1_4 + 1000.000000 u_1_4_5 - 3.723979 s_1_4  + 3.723979 s_1_7  + 2000.000000 r_1_4_5 > 9.777200
s_2_5 + s_2_4 + 1000 r_2_4_5 >= 2
- s_2_5 - s_2_4 - 1000 r_2_4_5 >= -1001
t_2_5 - t_2_4 + 1000.000000 u_2_4_5 - 3.395923 s_2_4  + 3.395923 s_2_7  + 2000.000000 r_2_4_5 > 10.518778
t_1_6 - t_1_5 - 1003.723979 s_1_5  + 3.723979 s_1_8  > -988.906544
t_1_6 - t_2_5 - 1003.395923 s_2_5  + 3.395923 s_2_8  > -976.382978
t_2_6 - t_1_5 - 1003.723979 s_1_5  + 3.723979 s_1_8  > -988.906544
t_2_6 - t_2_5 - 1003.395923 s_2_5  + 3.395923 s_2_8  > -976.382978
s_1_5 + s_1_7 + 1000 r_1_5_7 >= 2
- s_1_5 - s_1_7 - 1000 r_1_5_7 >= -1001
t_1_5 - t_1_7 - 1000.000000 u_1_5_7 - 0.000000 s_1_7  + 2000.000000 r_1_5_7 > -956.664000
s_2_5 + s_2_7 + 1000 r_2_5_7 >= 2
- s_2_5 - s_2_7 - 1000 r_2_5_7 >= -1001
t_2_5 - t_2_7 - 1000.000000 u_2_5_7 - 0.000000 s_2_7  + 2000.000000 r_2_5_7 > -950.926100
t_1_5 - t_1_8 - 1000.000000 s_1_8  > -959.520200
t_1_5 - t_2_8 - 1000.000000 s_2_8  > -952.784700
t_2_5 - t_1_8 - 1000.000000 s_1_8  > -959.520200
t_2_5 - t_2_8 - 1000.000000 s_2_8  > -952.784700
t_1_6 - t_1_7 - 1000.000000 s_1_7  > -956.664000
t_1_6 - t_2_7 - 1000.000000 s_2_7  > -950.926100
t_2_6 - t_1_7 - 1000.000000 s_1_7  > -956.664000
t_2_6 - t_2_7 - 1000.000000 s_2_7  > -950.926100
s_1_7 + s_1_5 + 1000 r_1_5_7 >= 2
- s_1_7 - s_1_5 - 1000 r_1_5_7 >= -1001
t_1_7 - t_1_5 + 1000.000000 u_1_5_7 - 3.723979 s_1_5  + 3.723979 s_1_8  + 2000.000000 r_1_5_7 > 11.093456
s_2_7 + s_2_5 + 1000 r_2_5_7 >= 2
- s_2_7 - s_2_5 - 1000 r_2_5_7 >= -1001
t_2_7 - t_2_5 + 1000.000000 u_2_5_7 - 3.395923 s_2_5  + 3.395923 s_2_8  + 2000.000000 r_2_5_7 > 23.617022
s_1_7 + s_1_8 + 1000 r_1_7_8 >= 2
- s_1_7 - s_1_8 - 1000 r_1_7_8 >= -1001
t_1_7 - t_1_8 - 1000.000000 u_1_7_8 - 0.000000 s_1_8  + 2000.000000 r_1_7_8 > -959.520200
s_2_7 + s_2_8 + 1000 r_2_7_8 >= 2
- s_2_7 - s_2_8 - 1000 r_2_7_8 >= -1001
t_2_7 - t_2_8 - 1000.000000 u_2_7_8 - 0.000000 s_2_8  + 2000.000000 r_2_7_8 > -952.784700
s_1_8 + s_1_2 + 1000 r_1_2_8 >= 2
- s_1_8 - s_1_2 - 1000 r_1_2_8 >= -1001
t_1_8 - t_1_2 + 1000.000000 u_1_2_8 - 3.723979 s_1_2  + 3.723979 s_1_7  + 2000.000000 r_1_2_8 > 24.597800
s_2_8 + s_2_2 + 1000 r_2_2_8 >= 2
- s_2_8 - s_2_2 - 1000 r_2_2_8 >= -1001
t_2_8 - t_2_2 + 1000.000000 u_2_2_8 - 3.395923 s_2_2  + 3.395923 s_2_7  + 2000.000000 r_2_2_8 > 48.642144
s_1_8 + s_1_4 + 1000 r_1_4_8 >= 2
- s_1_8 - s_1_4 - 1000 r_1_4_8 >= -1001
t_1_8 - t_1_4 + 1000.000000 u_1_4_8 - 3.723979 s_1_4  + 3.723979 s_1_7  + 2000.000000 r_1_4_8 > 9.777200
s_2_8 + s_2_4 + 1000 r_2_4_8 >= 2
- s_2_8 - s_2_4 - 1000 r_2_4_8 >= -1001
t_2_8 - t_2_4 + 1000.000000 u_2_4_8 - 3.395923 s_2_4  + 3.395923 s_2_7  + 2000.000000 r_2_4_8 > 10.518778
s_1_8 + s_1_7 + 1000 r_1_7_8 >= 2
- s_1_8 - s_1_7 - 1000 r_1_7_8 >= -1001
t_1_8 - t_1_7 + 1000.000000 u_1_7_8 - 0.000000 s_1_7  + 2000.000000 r_1_7_8 > 43.336000
s_2_8 + s_2_7 + 1000 r_2_7_8 >= 2
- s_2_8 - s_2_7 - 1000 r_2_7_8 >= -1001
t_2_8 - t_2_7 + 1000.000000 u_2_7_8 - 0.000000 s_2_7  + 2000.000000 r_2_7_8 > 49.073900
Binary
s_1_1
s_2_1
s_1_2
s_2_2
s_1_3
s_2_3
s_1_4
s_2_4
s_1_5
s_2_5
s_1_6
s_2_6
s_1_7
s_2_7
s_1_8
s_2_8
u_1_1_2
r_1_1_2
u_2_1_2
r_2_1_2
u_1_1_3
r_1_1_3
u_2_1_3
r_2_1_3
u_1_1_4
r_1_1_4
u_2_1_4
r_2_1_4
u_1_1_5
r_1_1_5
u_2_1_5
r_2_1_5
u_1_2_3
r_1_2_3
u_2_2_3
r_2_2_3
u_1_2_4
r_1_2_4
u_2_2_4
r_2_2_4
u_1_2_5
r_1_2_5
u_2_2_5
r_2_2_5
u_1_2_8
r_1_2_8
u_2_2_8
r_2_2_8
u_1_3_4
r_1_3_4
u_2_3_4
r_2_3_4
u_1_3_5
r_1_3_5
u_2_3_5
r_2_3_5
u_1_4_5
r_1_4_5
u_2_4_5
r_2_4_5
u_1_4_8
r_1_4_8
u_2_4_8
r_2_4_8
u_1_5_7
r_1_5_7
u_2_5_7
r_2_5_7
u_1_7_8
r_1_7_8
u_2_7_8
r_2_7_8

End
